c .nnodes 80
c .nvars 175
c .nsuppvars 112
c .ids  0 1 2 3 4 5 6 7 8 9 10 11 12 13 14 15 16 17 18 19 20 21 22 23 24 25 26 27 28 29 30 31 32 33 34 35 36 37 38 39 40 41 42 43 44 45 46 47 48 49 50 51 52 53 54 55 56 57 58 59 60 61 62 63 64 65 66 67 68 69 70 71 72 73 74 75 76 77 78 79 80 81 82 83 84 85 86 87 88 89 90 91 92 93 94 95 96 97 98 99 100 101 102 103 104 105 106 107 108 109 110 111 
c .cnfids  196 257 192 250 251 195 256 215 252 270 249 309 308 289 294 290 209 210 211 212 266 267 279 288 293 264 265 193 194 243 298 301 239 240 244 278 214 224 233 238 245 277 207 208 213 219 221 216 281 204 235 202 223 234 247 226 241 242 295 269 217 225 222 248 268 262 276 201 203 297 300 255 263 274 218 261 271 220 246 299 236 237 272 280 232 302 303 260 273 275 254 227 259 285 287 230 228 296 229 286 231 258 282 283 291 292 284 304 253 305 307 306 
c .nroots 1
c .rootids 2
p cnf 367 923
3 308 4 -144 -178 0
3 -308 -4 -144 -178 0
-3 178 0
-3 -308 4 0
-3 144 0
-3 308 -4 0
4 -309 -5 0
4 309 -132 -138 0
-4 309 132 0
-4 -309 5 0
-4 309 138 0
5 -6 -28 0
5 20 25 -28 0
-5 28 0
-5 6 -20 0
-5 6 -25 0
6 -7 11 -14 0
-6 7 0
-6 -11 0
-6 14 0
7 8 10 0
-7 -8 0
-7 -10 0
8 -305 -9 0
8 305 307 9 0
8 -305 -307 0
8 304 307 -9 0
-8 305 -307 0
-8 -305 307 9 0
-8 -304 305 -9 0
9 -253 306 0
-9 253 0
-9 -306 0
10 -304 305 -306 0
10 -304 -305 307 0
10 -304 -305 306 0
-10 304 0
-10 305 306 0
-10 -305 -306 -307 0
11 -304 -12 0
11 304 12 0
-11 304 -12 0
-11 -304 12 0
12 -306 13 0
12 253 306 -13 0
-12 -253 -13 0
-12 306 13 0
-12 -306 -13 0
13 -305 307 0
-13 305 0
-13 -307 0
14 15 -16 18 0
14 304 -16 18 0
-14 16 0
-14 -18 0
-14 -304 -15 0
15 -305 -306 -307 0
-15 305 0
-15 306 0
-15 307 0
16 253 306 17 0
16 -253 -306 307 0
16 -253 307 -17 0
16 -253 306 -307 0
-16 253 -306 0
-16 -253 306 307 17 0
-16 -306 -307 0
-16 253 -17 0
17 304 305 0
-17 -304 0
-17 -305 0
18 304 305 0
18 304 307 -19 0
-18 -304 0
-18 -305 -307 0
-18 -305 19 0
19 253 306 0
-19 -253 0
-19 -306 0
20 -225 -21 -23 0
20 -21 23 24 0
-20 21 0
-20 23 -24 0
-20 225 -23 0
21 -8 -10 -22 0
21 -8 -18 -22 0
-21 22 0
-21 8 0
-21 10 18 0
22 -11 -14 0
-22 11 0
-22 14 0
23 296 -297 0
-23 -296 0
-23 297 0
24 -225 -280 0
24 225 280 0
-24 225 -280 0
-24 -225 280 0
25 21 24 26 0
25 -225 21 -26 0
-25 -21 0
-25 225 -26 0
-25 -24 26 0
26 -296 -27 0
-26 296 0
-26 27 0
27 -7 -22 0
-27 7 0
-27 22 0
28 239 29 -32 -53 0
28 -239 -29 -32 -53 0
-28 53 0
-28 -239 29 0
-28 32 0
-28 239 -29 0
29 -294 30 0
-29 294 0
-29 -30 0
30 -295 -31 0
-30 295 0
-30 31 0
31 -8 11 -16 -18 0
-31 18 0
-31 8 0
-31 16 0
-31 -11 0
32 243 298 -33 0
32 243 -6 -33 0
32 -243 -298 6 -33 0
-32 -243 -6 0
-32 -243 298 0
-32 33 0
-32 243 -298 6 0
33 240 -34 -51 0
33 30 -34 -51 0
-33 51 0
-33 34 0
-33 -240 -30 0
34 -210 -35 47 -48 0
34 210 -35 47 48 0
-34 -47 0
-34 210 -48 0
-34 35 0
-34 -210 48 0
35 -209 36 -44 0
35 209 36 44 0
-35 -36 0
-35 -209 44 0
-35 209 -44 0
36 259 -38 0
36 37 -38 0
36 -258 -38 0
-36 38 0
-36 258 -259 -37 0
37 291 -292 0
-37 -291 0
-37 292 0
38 302 303 -41 0
38 -302 39 -41 0
38 302 -39 -41 0
-38 41 0
-38 -302 -39 0
-38 302 -303 39 0
39 282 -40 0
39 -282 40 0
-39 -282 -40 0
-39 282 40 0
40 283 -284 0
-40 -283 0
-40 284 0
41 -42 43 0
-41 42 0
-41 -43 0
42 282 -283 0
42 -282 283 284 0
-42 -282 -283 0
-42 283 -284 0
-42 282 283 0
43 -258 -291 0
43 258 259 291 292 0
-43 258 -259 0
-43 -258 291 0
-43 291 -292 0
-43 258 -291 0
44 -300 45 0
44 -264 -45 0
-44 300 45 0
-44 264 -45 0
45 254 -273 -46 0
45 254 274 -46 0
-45 -254 0
-45 46 0
-45 273 -274 0
46 -280 -299 0
-46 280 0
-46 299 0
47 272 37 -38 0
47 -271 37 -38 0
-47 38 0
-47 -37 0
-47 271 -272 0
48 -300 49 0
48 -265 -49 0
-48 300 49 0
-48 265 -49 0
49 -275 -50 0
49 276 -50 0
-49 50 0
-49 275 -276 0
50 -254 -280 -299 0
50 -255 -280 -299 0
-50 299 0
-50 280 0
-50 254 255 0
51 -30 52 0
51 240 295 52 0
51 -240 -295 52 0
-51 -52 0
-51 240 -295 30 0
-51 -240 295 30 0
52 298 -6 24 0
52 -225 -298 -6 0
-52 6 0
-52 225 -298 0
-52 298 -24 0
53 -54 58 -62 0
53 -57 58 -62 0
-53 62 0
-53 -58 0
-53 54 57 0
54 21 27 -56 0
54 21 -27 55 0
-54 -21 0
-54 -27 -55 0
-54 27 56 0
55 -242 -296 0
55 -242 297 0
55 -241 0
55 242 296 -297 0
-55 241 242 297 0
-55 241 242 -296 0
-55 241 -242 296 -297 0
56 -241 -296 0
56 241 -242 296 -297 0
56 241 242 296 297 0
-56 -241 296 0
-56 241 -242 297 0
-56 241 -296 0
-56 242 296 -297 0
57 -241 -296 -21 0
57 241 242 296 -21 0
-57 -242 296 0
-57 241 -296 0
-57 21 0
-57 -241 296 0
58 26 31 60 0
58 -26 31 59 0
-58 -31 0
-58 26 -60 0
-58 -26 -59 0
59 226 -246 -269 0
59 226 246 269 0
-59 -226 0
-59 -246 269 0
-59 246 -269 0
60 -226 -61 0
60 281 -61 0
-60 61 0
-60 226 -281 0
61 -246 -301 0
61 246 301 0
-61 246 -301 0
-61 -246 301 0
62 -63 129 -130 0
62 -63 -129 131 0
-62 63 0
-62 -129 -131 0
-62 129 130 0
63 226 -64 0
63 -281 30 -64 0
-63 64 0
-63 -226 281 0
-63 -226 -30 0
64 31 -66 -86 0
64 65 -66 -86 0
-64 86 0
-64 66 0
-64 -31 -65 0
65 295 60 0
65 246 -268 -295 0
65 -246 268 -295 0
-65 295 -60 0
-65 -246 -268 -295 0
-65 246 268 -295 0
66 67 -74 -80 -83 0
-66 -67 0
-66 83 0
-66 80 0
-66 74 0
67 -302 -68 72 0
67 302 -68 -72 0
67 303 -68 72 0
-67 68 0
-67 -302 -72 0
-67 302 -303 72 0
68 69 -70 71 0
68 37 69 -70 0
-68 70 0
-68 -69 0
-68 -37 -71 0
69 -260 -291 0
69 260 261 291 292 0
-69 260 -261 0
-69 -260 291 0
-69 291 -292 0
-69 260 -291 0
70 285 -286 0
70 -285 286 287 0
-70 -285 -286 0
-70 286 -287 0
-70 285 286 0
71 260 -261 0
-71 -260 0
-71 261 0
72 285 -73 0
72 -285 73 0
-72 -285 -73 0
-72 285 73 0
73 286 -287 0
-73 -286 0
-73 287 0
74 72 75 77 78 0
74 -72 75 77 -78 0
-74 -75 0
-74 72 -78 0
-74 -77 0
-74 -72 78 0
75 -70 76 0
-75 70 0
-75 -76 0
76 230 -231 0
76 -230 231 232 0
-76 -230 -231 0
-76 231 -232 0
-76 230 231 0
77 -216 271 0
77 216 217 -271 0
77 217 271 -272 0
-77 216 -217 0
-77 -216 -271 0
-77 216 271 272 0
78 230 -79 0
78 -230 79 0
-78 -230 -79 0
-78 230 79 0
79 231 -232 0
-79 -231 0
-79 232 0
80 -39 76 0
80 -70 81 0
80 -39 -70 0
80 76 81 0
-80 39 -81 0
-80 70 -76 0
81 227 -82 0
81 -227 82 0
-81 -227 -82 0
-81 227 82 0
82 228 -229 0
-82 -228 0
-82 229 0
83 -275 84 0
83 220 84 -85 0
-83 -84 0
-83 -220 275 0
-83 275 85 0
84 -193 254 0
84 193 -194 255 0
84 193 -254 0
84 194 254 -255 0
-84 -193 -254 0
-84 193 -194 254 -255 0
-84 193 194 254 255 0
85 -221 -276 0
85 221 276 0
-85 221 -276 0
-85 -221 276 0
86 42 87 -88 -109 0
86 -42 -87 -88 -109 0
-86 109 0
-86 -42 87 0
-86 88 0
-86 42 -87 0
87 227 -228 0
87 -227 228 229 0
-87 -227 -228 0
-87 228 -229 0
-87 227 228 0
88 -89 -98 -101 -104 0
-88 104 0
-88 89 0
-88 101 0
-88 98 0
89 -90 95 -96 -97 0
89 -90 95 96 97 0
-89 -95 0
-89 96 -97 0
-89 90 0
-89 -96 97 0
90 91 92 93 -94 0
90 -91 -92 93 -94 0
-90 -93 0
-90 91 -92 0
-90 94 0
-90 -91 92 0
91 222 -223 0
-91 -222 0
-91 223 0
92 277 -278 0
-92 -277 0
-92 278 0
93 213 -268 0
-93 -213 0
-93 268 0
94 -218 -308 0
94 273 -308 0
-94 308 0
-94 218 -273 0
95 -236 291 0
95 236 237 -291 0
95 237 291 -292 0
-95 236 -237 0
-95 -236 -291 0
-95 236 291 292 0
96 302 303 0
-96 -302 0
-96 -303 0
97 247 248 0
-97 -247 0
-97 -248 0
98 99 -100 0
98 201 202 -100 0
-98 100 0
-98 -202 -99 0
-98 -201 -99 0
99 258 259 0
-99 -258 0
-99 -259 0
100 -201 -269 0
100 214 258 0
100 258 -269 0
100 -201 214 0
-100 -214 269 0
-100 201 -258 0
101 102 103 0
101 262 -263 102 0
-101 -102 0
-101 -262 -103 0
-101 263 -103 0
102 -203 260 261 0
102 -204 260 261 0
-102 -261 0
-102 -260 0
-102 203 204 0
103 207 -208 0
-103 -207 0
-103 208 0
104 247 302 -105 -106 0
104 -247 -302 -105 -106 0
-104 106 0
-104 -247 302 0
-104 105 0
-104 247 -302 0
105 -203 -268 0
105 213 260 0
105 260 -268 0
105 -203 213 0
-105 -213 268 0
-105 203 -260 0
106 238 293 107 108 0
106 -238 -293 107 108 0
-106 -107 0
-106 -238 293 0
-106 -108 0
-106 238 -293 0
107 220 -275 0
-107 -220 0
-107 275 0
108 214 -269 0
-108 -214 0
-108 269 0
109 -110 -117 -126 128 0
-109 126 0
-109 -128 0
-109 110 0
-109 117 0
110 111 112 -113 116 0
110 -111 -112 -113 116 0
-110 -116 0
-110 -111 112 0
-110 113 0
-110 111 -112 0
111 -282 -283 0
111 -282 -284 0
-111 282 0
-111 283 284 0
112 -227 -228 0
112 -227 -229 0
-112 227 0
-112 228 229 0
113 114 115 -81 0
113 -114 -115 -81 0
113 39 -114 -115 0
113 39 114 115 0
-113 -114 115 0
-113 114 -115 0
-113 -39 81 0
114 -285 -286 0
114 -285 -287 0
-114 285 0
-114 286 287 0
115 -230 -231 0
115 -230 -232 0
-115 230 0
-115 231 232 0
116 -218 273 0
116 219 273 -274 0
116 -219 273 274 0
-116 -273 0
-116 218 -219 -274 0
-116 218 219 274 0
117 -118 -121 124 125 0
-117 121 0
-117 -125 0
-117 118 0
-117 -124 0
118 222 277 119 -120 0
118 -222 -277 119 -120 0
-118 -119 0
-118 222 -277 0
-118 120 0
-118 -222 277 0
119 224 -279 0
119 -224 279 0
-119 -224 -279 0
-119 224 279 0
120 -212 233 -267 288 0
120 212 -233 267 -288 0
120 212 233 267 288 0
120 -212 -233 -267 -288 0
-120 -212 267 0
-120 212 -267 0
-120 233 -288 0
-120 -233 288 0
121 217 123 0
121 -216 123 0
121 -122 123 0
-121 -123 0
-121 216 -217 122 0
122 271 -272 0
-122 -271 0
-122 272 0
123 202 258 -259 0
123 -201 258 -259 0
-123 259 0
-123 -258 0
-123 201 -202 0
124 236 -237 37 0
-124 -236 0
-124 237 0
-124 -37 0
125 204 260 -261 0
125 -203 260 -261 0
-125 261 0
-125 -260 0
-125 203 -204 0
126 -244 -299 -127 0
126 244 299 -127 0
-126 127 0
-126 -244 299 0
-126 244 -299 0
127 -211 245 -266 300 0
127 211 -245 266 -300 0
127 211 245 266 300 0
127 -211 -245 -266 -300 0
-127 -211 266 0
-127 211 -266 0
-127 245 -300 0
-127 -245 300 0
128 -207 262 0
128 207 208 -262 0
128 208 262 -263 0
-128 207 -208 0
-128 -207 -262 0
-128 207 262 263 0
129 -281 296 -297 -21 0
-129 21 0
-129 281 0
-129 297 0
-129 -296 0
130 -234 -289 0
130 234 -235 289 -290 0
130 234 235 289 290 0
-130 -234 289 0
-130 234 -235 290 0
-130 234 -289 0
-130 235 289 -290 0
131 -234 262 0
131 234 -235 263 0
131 234 -262 0
131 235 262 -263 0
-131 -234 -262 0
-131 234 -235 262 -263 0
-131 234 235 262 263 0
132 78 81 -133 -134 0
-132 -78 0
-132 134 0
-132 133 0
-132 -81 0
133 234 -245 -246 0
133 -236 245 246 0
133 234 245 246 0
133 -236 -245 -246 0
-133 245 -246 0
-133 -245 246 0
-133 -234 236 0
134 -135 -136 -137 -97 0
-134 97 0
-134 135 0
-134 137 0
-134 136 0
135 241 242 0
-135 -241 0
-135 -242 0
136 230 231 0
-136 -230 0
-136 -231 0
137 227 228 0
-137 -227 0
-137 -228 0
138 139 -140 -141 -142 0
-138 -139 0
-138 142 0
-138 141 0
-138 140 0
139 234 -236 0
139 234 -235 237 0
139 234 235 -237 0
-139 -234 0
-139 235 236 237 0
-139 -235 236 -237 0
140 222 223 224 225 0
-140 -225 0
-140 -224 0
-140 -222 0
-140 -223 0
141 218 219 220 221 0
-141 -221 0
-141 -220 0
-141 -218 0
-141 -219 0
142 240 243 244 -143 0
-142 143 0
-142 -244 0
-142 -240 0
-142 -243 0
143 226 233 238 239 0
-143 -239 0
-143 -238 0
-143 -226 0
-143 -233 0
144 -145 -160 -167 -172 0
-144 172 0
-144 145 0
-144 167 0
-144 160 0
145 -146 -150 -153 -157 0
-145 157 0
-145 146 0
-145 153 0
-145 150 0
146 228 283 -147 -149 0
146 -228 -283 -147 -149 0
-146 149 0
-146 -228 283 0
-146 147 0
-146 228 -283 0
147 -250 -305 -148 0
147 250 305 -148 0
-147 148 0
-147 -250 305 0
-147 250 -305 0
148 -231 -272 0
148 217 286 0
148 217 -231 0
148 -272 286 0
-148 -217 272 0
-148 231 -286 0
149 -237 -309 0
149 292 -309 0
-149 309 0
-149 237 -292 0
150 227 282 -151 -152 0
150 -227 -282 -151 -152 0
-150 152 0
-150 -227 282 0
-150 151 0
-150 227 -282 0
151 -195 202 -256 259 0
151 195 -202 256 -259 0
151 195 202 256 259 0
151 -195 -202 -256 -259 0
-151 -195 256 0
-151 195 -256 0
-151 202 -259 0
-151 -202 259 0
152 -229 -286 0
152 231 284 0
152 284 -286 0
152 -229 231 0
-152 -231 286 0
-152 229 -284 0
153 204 261 -154 -155 0
153 -204 -261 -154 -155 0
-153 155 0
-153 -204 261 0
-153 154 0
-153 204 -261 0
154 -216 -271 0
154 216 271 0
-154 216 -271 0
-154 -216 271 0
155 -193 -254 -156 0
155 193 254 -156 0
-155 156 0
-155 -193 254 0
-155 193 -254 0
156 -240 -295 0
156 240 295 0
-156 240 -295 0
-156 -240 295 0
157 235 290 -158 -159 0
157 -235 -290 -158 -159 0
-157 159 0
-157 -235 290 0
-157 158 0
-157 235 -290 0
158 -194 -255 0
158 194 255 0
-158 194 -255 0
-158 -194 255 0
159 -210 -265 -85 0
159 210 265 -85 0
-159 85 0
-159 -210 265 0
-159 210 -265 0
160 -161 -162 -165 -166 0
-160 166 0
-160 161 0
-160 165 0
-160 162 0
161 -196 -257 307 0
161 196 257 307 0
161 196 -252 257 0
161 -196 -252 -257 0
-161 -196 257 0
-161 196 -257 0
-161 252 -307 0
162 208 263 163 164 0
162 -208 -263 163 164 0
-162 -163 0
-162 -208 263 0
-162 -164 0
-162 208 -263 0
163 -239 294 0
-163 239 0
-163 -294 0
164 -252 307 0
-164 252 0
-164 -307 0
165 229 248 0
165 -284 -303 0
165 229 -303 0
165 248 -284 0
-165 -229 284 0
-165 -248 303 0
166 -239 272 0
166 -217 294 0
166 -217 -239 0
166 272 294 0
-166 239 -294 0
-166 217 -272 0
167 -168 -170 -171 0
-167 168 0
-167 170 0
-167 171 0
168 226 281 93 169 0
168 -226 -281 93 169 0
-168 -93 0
-168 -226 281 0
-168 -169 0
-168 226 -281 0
169 218 -273 0
-169 -218 0
-169 273 0
170 237 249 0
170 -292 -304 0
170 237 -304 0
170 249 -292 0
-170 -237 292 0
-170 -249 304 0
171 -248 -260 0
171 203 303 0
171 203 -248 0
171 -260 303 0
-171 -203 260 0
-171 248 -303 0
172 -173 -176 -177 0
-172 173 0
-172 176 0
-172 177 0
173 230 285 174 175 0
173 -230 -285 174 175 0
-173 -174 0
-173 -230 285 0
-173 -175 0
-173 230 -285 0
174 215 -270 0
-174 -215 0
-174 270 0
175 249 -304 0
-175 -249 0
-175 304 0
176 201 220 0
176 -258 -275 0
176 201 -275 0
176 220 -258 0
-176 -201 258 0
-176 -220 275 0
177 215 218 0
177 -270 -273 0
177 215 -273 0
177 218 -270 0
-177 -215 270 0
-177 -218 273 0
178 -118 -126 -179 -180 0
-178 180 0
-178 118 0
-178 179 0
-178 126 0
179 246 301 -24 -100 0
179 -246 -301 -24 -100 0
-179 100 0
-179 -246 301 0
-179 24 0
-179 246 -301 0
180 -104 -181 -188 -190 0
-180 190 0
-180 104 0
-180 188 0
-180 181 0
181 -182 -183 -184 -185 0
-181 185 0
-181 182 0
-181 184 0
-181 183 0
182 -243 -298 0
182 243 298 0
-182 243 -298 0
-182 -243 298 0
183 -207 -262 0
183 207 262 0
-183 207 -262 0
-183 -207 262 0
184 -192 242 -253 297 0
184 192 -242 253 -297 0
184 192 242 253 297 0
184 -192 -242 -253 -297 0
-184 -192 253 0
-184 192 -253 0
-184 242 -297 0
-184 -242 297 0
185 223 278 -186 -187 0
185 -223 -278 -186 -187 0
-185 187 0
-185 -223 278 0
-185 186 0
-185 223 -278 0
186 -234 -289 0
186 234 289 0
-186 234 -289 0
-186 -234 289 0
187 -232 236 -287 291 0
187 232 -236 287 -291 0
187 232 236 287 291 0
187 -232 -236 -287 -291 0
-187 -232 287 0
-187 232 -287 0
-187 236 -291 0
-187 -236 291 0
188 -251 -306 -189 0
188 251 306 -189 0
-188 189 0
-188 -251 306 0
-188 251 -306 0
189 -219 -274 0
189 219 274 0
-189 219 -274 0
-189 -219 274 0
190 -209 -264 191 0
190 209 264 191 0
-190 -191 0
-190 -209 264 0
-190 209 -264 0
191 241 -296 0
191 -241 296 0
-191 -241 -296 0
-191 241 296 0
367 0
2 3 0
-2 -3 0
2 0

